(set-logic QF_S)
(declare-fun V45 () String )
(declare-fun V3 () String )
(declare-fun V32 () String )
(declare-fun V12 () String )
(declare-fun V30 () String )
(declare-fun V41 () String )
(declare-fun V6 () String )
(declare-fun V29 () String )
(declare-fun V7 () String )
(declare-fun V0 () String )
(declare-fun V26 () String )
(declare-fun V31 () String )
(declare-fun V46 () String )
(declare-fun V8 () String )
(declare-fun V39 () String )
(declare-fun V15 () String )
(declare-fun V24 () String )
(declare-fun V36 () String )
(declare-fun V1 () String )
(declare-fun V10 () String )
(declare-fun V17 () String )
(declare-fun V50 () String )
(declare-fun V13 () String )
(declare-fun V49 () String )
(declare-fun V35 () String )
(declare-fun V11 () String )
(declare-fun V34 () String )
(declare-fun V28 () String )
(declare-fun V16 () String )
(declare-fun V40 () String )
(declare-fun V55 () String )
(declare-fun V14 () String )
(declare-fun V25 () String )
(declare-fun V47 () String )
(declare-fun V2 () String )
(declare-fun V18 () String )
(declare-fun V19 () String )
(declare-fun V20 () String )
(declare-fun V5 () String )
(declare-fun V54 () String )
(declare-fun V51 () String )
(declare-fun V23 () String )
(declare-fun V21 () String )
(declare-fun V4 () String )
(declare-fun V48 () String )
(declare-fun V37 () String )
(declare-fun V9 () String )
(declare-fun V22 () String )
(declare-fun V27 () String )
(declare-fun V42 () String )
(declare-fun V38 () String )
(declare-fun V33 () String )
(assert (= "" "B" ) )
(assert (= "" V33 ) )
(assert (= "" (str.++ (str.++ V19 V20 ) V21 ) ) )
(assert (= "\r" V13 ) )
(assert (= "=" V14 ) )
(assert (= "B" V4 ) )
(assert (= "F" V12 ) )
(assert (= V11 (str.++ (str.++ V28 "B" ) V29 ) ) )
(assert (= V11 (str.++ (str.++ V19 V20 ) V21 ) ) )
(assert (= V11 (str.++ (str.++ V8 V9 ) V10 ) ) )
(assert (= V10 V21 ) )
(assert (= V39 (str.++ (str.++ V48 "b" ) V49 ) ) )
(assert (= V9 (str.++ (str.++ V48 "B" ) V49 ) ) )
(assert (= V47 (str.++ (str.++ V45 "f" ) V46 ) ) )
(assert (= V36 (str.++ (str.++ V45 "F" ) V46 ) ) )
(assert (= V6 (str.++ (str.++ V50 "B" ) V51 ) ) )
(assert (= V38 (str.++ (str.++ V50 "b" ) V51 ) ) )
(assert (= V1 (str.++ (str.++ V17 V11 ) V18 ) ) )
(assert (= V1 (str.++ (str.++ V32 V33 ) V34 ) ) )
(assert (= V1 (str.++ (str.++ V25 V26 ) V27 ) ) )
(assert (= V1 (str.++ (str.++ V30 "B" ) V31 ) ) )
(assert (= V1 (str.++ (str.++ V5 V6 ) V7 ) ) )
(assert (= V3 (str.++ (str.++ V15 V13 ) V16 ) ) )
(assert (= V3 (str.++ (str.++ V22 V23 ) V24 ) ) )
(assert (= V3 (str.++ (str.++ V0 V1 ) V2 ) ) )
(assert (= (str.++ (str.++ V54 "F" ) V55 ) (str.++ (str.++ V38 V39 ) V20 ) ) )
(assert (= (str.++ (str.++ V35 V36 ) V37 ) (str.++ (str.++ V38 V39 ) V20 ) ) )
(assert (= (str.++ (str.++ V40 V41 ) V42 ) (str.++ (str.++ V38 V39 ) V20 ) ) )
( check-sat )
